NAME : portcgen-25-19
COMMENT : portcgen N=25, seed=19
TYPE : TSP
DIMENSION : 25
EDGE_WEIGHT_TYPE : EUC_2D
NODE_COORD_SECTION
1 -47088 -161546
2 -176351 50478
3 49674 329652
4 -282328 128137
5 -204028 -65839
6 20388 -75032
7 349990 -53491
8 432305 76699
9 5234 -83068
10 172431 125291
11 -396083 177381
12 -179077 51672
13 -32118 -477135
14 -144438 144709
15 -254839 -3064
16 109473 22314
17 -127904 -236449
18 -190068 34513
19 213253 311932
20 -485527 -4634
21 94089 -126189
22 -537500 -197025
23 139620 50022
24 389107 672877
25 -96395 -153662
